db/data/2395825064119313060492567112295955614.z3.out
sat
-------------------
39.028323213
